objective value:                           -6004.4086
x64                                                 1 	(obj:-1162.67)
x75                                                 1 	(obj:-222.992)
x80                                                 1 	(obj:-206.084)
x97                                                 1 	(obj:-448.665)
x170                                                1 	(obj:-395.615)
x213                                                1 	(obj:-179.096)
x266                                                1 	(obj:-197.059)
x299                                                1 	(obj:-172.613)
x331                                                1 	(obj:-425.92)
x340                                                1 	(obj:-168.107)
x348                                                1 	(obj:-433.874)
x371                                                1 	(obj:-183.523)
x424                                                1 	(obj:-1297.12)
x435                                                1 	(obj:-415.696)
x492                                                1 	(obj:-95.3746)
